
--- Job Opgave 6 benchmark calculations.gms Start 08/14/25 10:33:08 50.3.0 5a352073 DEX-DEG x86 64bit/macOS
--- Applying:
    /Library/Frameworks/GAMS.framework/Versions/50/Resources/gmsprmun.txt
--- GAMS Parameters defined
    Input "/Users/lukaskranker/Library/CloudStorage/OneDrive-KøbenhavnsUniversitet/Uni/6. År/PFO2025/Opgave 6/Opgave 6 benchmark calculations.gms"
    PageSize 0
    ScrDir "/Users/lukaskranker/Library/CloudStorage/OneDrive-KøbenhavnsUniversitet/Uni/6. År/PFO2025/Opgave 6/225a/"
    SysDir /Library/Frameworks/GAMS.framework/Versions/50/Resources/
    LogOption 3
    AppendLog 1
    ErrMsg 1
    ErrorLog 99
    IDE 1
    LstTitleLeftAligned 1
Licensee: Course License                                 G250404+0003Ac-GEN
          University of Copenhagen                                  DCE4232
          225a/gamslice.dat
          node:10959501 mem:16 cores:6 ipport:64264 v:2                    
          Course license for use within the course and related course work
          The expiration date of time-limited license is Oct 01, 2025
System information: 6 physical cores and 16 Gb physical memory detected
GAMS 50.3.0   Copyright (C) 1987-2025 GAMS Development. All rights reserved
--- Starting compilation
--- Opgave 6 benchmark calculations.gms(15) 3 Mb
--- GDXin=/Users/lukaskranker/Library/CloudStorage/OneDrive-KøbenhavnsUniversitet/Uni/6. År/PFO2025/Opgave 6/weekly_returns_2013_2025.gdx
--- GDX File ($gdxIn) /Users/lukaskranker/Library/CloudStorage/OneDrive-KøbenhavnsUniversitet/Uni/6. År/PFO2025/Opgave 6/weekly_returns_2013_2025.gdx
--- Opgave 6 benchmark calculations.gms(132) 3 Mb
--- Starting execution: elapsed 0:00:00.054
--- Opgave 6 benchmark calculations.gms(125) 5 Mb
--- Generating LP model MinCVaR
--- Opgave 6 benchmark calculations.gms(126) 5 Mb
---   2,002 rows  2,727 columns  6,727 non-zeroes
--- Range statistics (absolute non-zero finite values)
--- RHS       [min, max] : [ 1.000E+00, 1.000E+00] - Zero values observed as well
--- Bound     [min, max] : [ 1.000E+00, 1.000E+00] - Zero values observed as well
--- Matrix    [min, max] : [ 1.491E-05, 1.000E+00]
--- Executing CPLEX (Solvelink=2): elapsed 0:00:00.807

IBM ILOG CPLEX   50.3.0 5a352073 Jul 30, 2025          DEG x86 64bit/macOS    

--- GAMS/CPLEX licensed for continuous and discrete problems.
--- GMO setup time: 0.00s
--- Space for names approximately 0.11 Mb
--- Use option 'names no' to turn use of names off
--- GMO memory 1.04 Mb (peak 1.06 Mb)
--- Dictionary memory 0.00 Mb
--- Cplex 22.1.2.0 link memory 0.07 Mb (peak 0.31 Mb)
--- Starting Cplex

Version identifier: 22.1.2.0 | 2024-12-02 | 8bd2200c8
CPXPARAM_Advance                                 0
CPXPARAM_MIP_Display                             4
CPXPARAM_MIP_Pool_Capacity                       0
CPXPARAM_MIP_Tolerances_AbsMIPGap                0
Tried aggregator 1 time.
LP Presolve eliminated 1001 rows and 1726 columns.
Reduced LP has 1000 rows, 1001 columns, and 2000 nonzeros.
Presolve time = 0.00 sec. (1.63 ticks)

Iteration log . . .
Iteration:     1   Dual infeasibility =             0.980000
Iteration:    51   Dual objective     =             0.993840
Iteration:   112   Dual objective     =             1.035457

--- LP status (1): optimal.
--- Cplex Time: 0.01sec (det. 6.96 ticks)


Optimal solution found
Objective:            1.043244

--- Reading solution for model MinCVaR
--- Executing after solve: elapsed 0:00:00.949
--- Opgave 6 benchmark calculations.gms(128) 5 Mb
*** Status: Normal completion
--- Job Opgave 6 benchmark calculations.gms Stop 08/14/25 10:33:09 elapsed 0:00:00.951
